StudentsNr = 10;
InstructorsNr = 35;
DaysNr = 1;
SlotsPerDay = 20;
AvailabilitySlotsLenght = 5;
RoomNr = 1;
ProgrammNr = 2;
DegreeNr = 2;
RolesNr = 3;
CoursesNr = 3;
InstructorsProgramm = [{2}, {2}, {1, 2}, {1}, {2}, {2}, {2}, {2}, {1, 2}, {1}, {1}, {1, 2}, {1, 2}, {1}, {1, 2}, {2}, {2}, {1}, {2}, {1}, {1}, {1}, {2}, {1}, {2}, {1}, {1}, {1}, {2}, {2}, {2}, {2}, {1, 2}, {1, 2}, {2}];
InstructorRolesPerProgramm = [|{14, 15, 26, 27, 33}, {12, 18, 20, 22, 27, 34}, {4, 12, 13, 14, 18, 21, 22, 33}|{5, 7, 15, 19, 23, 25, 33}, {1, 5, 12, 16, 23, 25, 31, 34, 35}, {6, 7, 8, 12, 13, 16, 29, 31, 32, 33}|];
InstructorsAvailability = [|0, 1, 1, 1, |0, 0, 0, 0, |0, 1, 1, 1, |1, 0, 1, 1, |0, 0, 0, 1, |0, 1, 1, 1, |1, 1, 1, 1, |0, 1, 1, 1, |0, 1, 1, 0, |0, 1, 0, 1, |0, 0, 0, 0, |0, 0, 1, 1, |0, 1, 1, 0, |0, 1, 1, 1, |0, 0, 0, 0, |1, 1, 0, 1, |1, 1, 1, 1, |0, 1, 0, 1, |0, 1, 1, 1, |1, 1, 1, 1, |0, 1, 1, 1, |0, 1, 1, 1, |1, 1, 1, 1, |1, 1, 1, 1, |1, 1, 1, 1, |0, 0, 1, 1, |1, 1, 1, 1, |0, 1, 1, 1, |0, 1, 1, 0, |0, 1, 1, 1, |1, 1, 1, 1, |1, 1, 1, 1, |1, 1, 1, 1, |1, 1, 1, 1, |1, 1, 1, 1|];
StudentsProgramm = [2, 1, 2, 2, 1, 2, 1, 2, 2, 2];
StudentsDegree = [2, 2, 1, 1, 2, 2, 2, 1, 2, 2];
StudentsSupervisorId = [2, 20, 29, 1, 22, 33, 13, 16, 30, 35];
StudentsCourseIds = [{2}, {2}, {}, {}, {1}, {1}, {2}, {}, {2}, {3}];
StudentsAvailability = [|0, 1, 1, 1, |1, 1, 1, 1, |0, 1, 1, 1, |0, 1, 1, 1, |1, 1, 1, 1, |1, 1, 1, 1, |1, 1, 1, 1, |0, 0, 0, 1, |1, 1, 1, 1, |0, 0, 0, 1|];
TheoryticalMinCard = [1, 0, 0, 0, 0, 0, 0, 0, 1, 0];
CoursesInstructorIds = [{2, 3, 5, 17, 18, 19, 22, 23, 30, 35}, {4, 5, 8, 9, 11, 12, 14, 15, 16, 18, 19, 20, 21, 22, 26, 27, 29, 31, 33, 35}, {2, 22, 23, 31}];
RolesDemands = [1, 2, 5];
RolesContinuity = [];
ExamLen = [2, 2, 1, 1, 2, 2, 2, 1, 2, 2];
LunchTsMinLen = 1;
LunchStarts = [7..15];
SupervisorAvailable = 0;
OptimalLunchLenght = [1, 1];
OptimalStartTs = [0, 0];
OptimalFinishTs = [1, 20];
MinimizeRooms = 100;
RolesSoftContinuity = [|1, 2, 3|0, 4, 4|];
SameDegreeInRoom = 20;
Mergeability = 0;
